Instance name: /home/cuong/CLionProjects/uMV-FSTSP/50_dis_rand_ins/v70
Write arg val: 1

drone speed: 1 miles/minute
uav non-eligible customer: 10 11 
Printing tau:
0 11.6713 63.8644 61.8297 52.1869 43.1656 59.2816 62.538 55.9243 104.576 104.045 0 
11.6713 0 68.511 66.4763 56.8335 47.8122 63.9281 67.1846 60.5709 109.222 108.691 11.6713 
63.8644 68.511 0 2.16018 26.7882 53.6639 41.3088 94.1467 98.7822 40.7115 53.9722 63.8644 
61.8297 66.4763 2.16018 0 28.9484 55.8241 43.469 96.3069 100.942 42.7462 56.1324 61.8297 
52.1869 56.8335 26.7882 28.9484 0 26.8757 14.5206 67.3585 71.994 52.389 51.8576 52.1869 
43.1656 47.8122 53.6639 55.8241 26.8757 0 16.116 40.4828 45.1183 61.4103 60.8789 43.1656 
59.2816 63.9281 41.3088 43.469 14.5206 16.116 0 52.8379 57.4734 45.2943 44.763 59.2816 
62.538 67.1846 94.1467 96.3069 67.3585 40.4828 52.8379 0 6.61364 58.5758 41.5066 62.538 
55.9243 60.5709 98.7822 100.942 71.994 45.1183 57.4734 6.61364 0 63.2114 48.1202 55.9243 
104.576 109.222 40.7115 42.7462 52.389 61.4103 45.2943 58.5758 63.2114 0 18.4014 104.576 
104.045 108.691 53.9722 56.1324 51.8576 60.8789 44.763 41.5066 48.1202 18.4014 0 104.045 
0 0 0 0 0 0 0 0 0 0 0 0 
Printing tau_prime:
0 1.77657 12.1171 12.1135 8.53628 6.12406 8.67669 10.2782 9.86245 15.0999 14.7208 0 
1.77657 0 11.6269 11.5634 8.45955 6.86079 9.05973 11.7349 11.4136 15.5094 15.4185 1.77657 
12.1171 11.6269 0 0.419675 4.13273 8.1342 5.87779 13.3157 14.015 7.64553 9.51572 12.1171 
12.1135 11.5634 0.419675 0 4.31508 8.32428 6.158 13.6202 14.2998 8.06333 9.93271 12.1135 
8.53628 8.45955 4.13273 4.31508 0 4.00921 2.28553 9.63775 10.1952 7.51231 8.28032 8.53628 
6.12406 6.86079 8.1342 8.32428 4.00921 0 2.87184 6.34688 6.63091 9.05382 8.60969 6.12406 
8.67669 9.05973 5.87779 6.158 2.28553 2.87184 0 7.48658 8.14182 6.45678 6.57889 8.67669 
10.2782 11.7349 13.3157 13.6202 9.63775 6.34688 7.48658 0 1.14218 10.1964 8.16919 10.2782 
9.86245 11.4136 14.015 14.2998 10.1952 6.63091 8.14182 1.14218 0 11.2807 9.29892 9.86245 
15.0999 15.5094 7.64553 8.06333 7.51231 9.05382 6.45678 10.1964 11.2807 0 2.60343 15.0999 
14.7208 15.4185 9.51572 9.93271 8.28032 8.60969 6.57889 8.16919 9.29892 2.60343 0 14.7208 
0 0 0 0 0 0 0 0 0 0 0 0 
Version identifier: 22.1.1.0 | 2022-11-28 | 9160aff4d
CPXPARAM_MIP_Tolerances_Integrality              0
Tried aggregator 1 time.
MIP Presolve eliminated 1 rows and 12 columns.
MIP Presolve modified 20 coefficients.
Reduced MIP has 122 rows, 120 columns, and 510 nonzeros.
Reduced MIP has 110 binaries, 0 generals, 0 SOSs, and 0 indicators.
Presolve time = 0.00 sec. (0.27 ticks)
Found incumbent of value 622.273000 after 0.00 sec. (0.75 ticks)
Probing time = 0.00 sec. (0.26 ticks)
Cover probing fixed 0 vars, tightened 10 bounds.
Tried aggregator 1 time.
Detecting symmetries...
MIP Presolve eliminated 10 rows and 0 columns.
MIP Presolve modified 180 coefficients.
Reduced MIP has 112 rows, 120 columns, and 490 nonzeros.
Reduced MIP has 110 binaries, 0 generals, 0 SOSs, and 0 indicators.
Presolve time = 0.00 sec. (0.35 ticks)
Probing time = 0.00 sec. (0.26 ticks)
Clique table members: 67.
MIP emphasis: balance optimality and feasibility.
MIP search method: dynamic search.
Parallel mode: deterministic, using up to 20 threads.
Root relaxation solution time = 0.00 sec. (0.19 ticks)

        Nodes                                         Cuts/
   Node  Left     Objective  IInf  Best Integer    Best Bound    ItCnt     Gap

*     0+    0                          622.2730        0.0000           100.00%
      0     0      155.6270    19      622.2730      155.6270       21   74.99%
*     0+    0                          333.3370      155.6270            53.31%
      0     0      237.3137    18      333.3370      Cuts: 50       43   28.81%
*     0+    0                          284.2606      237.3137            16.52%
      0     0      237.3137    18      284.2606       Cuts: 4       52   16.52%
Detecting symmetries...

Repeating presolve.
Tried aggregator 2 times.
MIP Presolve eliminated 21 rows and 34 columns.
Aggregator did 4 substitutions.
Reduced MIP has 87 rows, 82 columns, and 354 nonzeros.
Reduced MIP has 72 binaries, 0 generals, 0 SOSs, and 0 indicators.
Presolve time = 0.00 sec. (0.27 ticks)
Probing time = 0.00 sec. (0.16 ticks)
Cover probing fixed 0 vars, tightened 13 bounds.
Tried aggregator 1 time.
Detecting symmetries...
MIP Presolve modified 122 coefficients.
Reduced MIP has 87 rows, 82 columns, and 354 nonzeros.
Reduced MIP has 72 binaries, 0 generals, 0 SOSs, and 0 indicators.
Presolve time = 0.00 sec. (0.23 ticks)
Represolve time = 0.00 sec. (0.86 ticks)
Probing time = 0.00 sec. (0.16 ticks)
Cover probing fixed 0 vars, tightened 2 bounds.
Clique table members: 50.
MIP emphasis: balance optimality and feasibility.
MIP search method: dynamic search.
Parallel mode: deterministic, using up to 20 threads.
Root relaxation solution time = 0.00 sec. (0.23 ticks)

        Nodes                                         Cuts/
   Node  Left     Objective  IInf  Best Integer    Best Bound    ItCnt     Gap

*     0+    0                          284.2606      237.3137            16.52%
      0     0      237.3137    18      284.2606      237.3137       69   16.52%
      0     0      237.3249    20      284.2606      Cuts: 30       96   16.51%
      0     0      237.3765    16      284.2606      Cuts: 15      107   16.49%
      0     0      237.4392    18      284.2606      Cuts: 32      120   16.47%
      0     0      237.4392    18      284.2606      Cuts: 19      129   16.47%
      0     0      237.4392    18      284.2606      Cuts: 25      145   16.47%
      0     0        cutoff            284.2606      284.2606      145    0.00%
Elapsed time = 0.03 sec. (12.60 ticks, tree = 0.01 MB, solutions = 3)

Clique cuts applied:  3
Implied bound cuts applied:  4
Multi commodity flow cuts applied:  4
Gomory fractional cuts applied:  1

Root node processing (before b&c):
  Real time             =    0.03 sec. (12.61 ticks)
Parallel b&c, 20 threads:
  Real time             =    0.00 sec. (0.00 ticks)
  Sync time (average)   =    0.00 sec.
  Wait time (average)   =    0.00 sec.
                          ------------
Total (root+branch&cut) =    0.03 sec. (12.61 ticks)

TSP solution for this instance: 0 8 7 10 9 3 2 4 6 5 1 11 
12
Warmstart X[1][0] == 1
Warmstart X[2][8] == 1
Warmstart X[3][7] == 1
Warmstart X[4][10] == 1
Warmstart X[5][9] == 1
Warmstart X[6][3] == 1
Warmstart X[7][2] == 1
Warmstart X[8][4] == 1
Warmstart X[9][6] == 1
Warmstart X[10][5] == 1
Warmstart X[11][1] == 1
---------------------------------------------
Calculate max stage gap for sortie.... 
Stage gap calculation consumes too much memory. No constraint was added.
---------------------------------------------
Num constraint added = 0
Warning:  Output names have been modified due to duplicate names or characters invalid in LP format.
Version identifier: 22.1.1.0 | 2022-11-28 | 9160aff4d
CPXPARAM_TimeLimit                               200
CPXPARAM_MIP_Tolerances_Integrality              0
1 of 1 MIP starts provided solutions.
MIP start 'm1' defined initial solution with objective 284.2606.
Tried aggregator 2 times.
MIP Presolve eliminated 4444 rows and 1204 columns.
MIP Presolve modified 3157 coefficients.
Aggregator did 24 substitutions.
Reduced MIP has 1642 rows, 3548 columns, and 41386 nonzeros.
Reduced MIP has 3527 binaries, 0 generals, 0 SOSs, and 0 indicators.
Presolve time = 0.04 sec. (96.82 ticks)
Probing fixed 219 vars, tightened 0 bounds.
Probing changed sense of 4 constraints.
Probing time = 0.05 sec. (131.53 ticks)
Tried aggregator 3 times.
Detecting symmetries...
MIP Presolve eliminated 91 rows and 223 columns.
MIP Presolve modified 443 coefficients.
Aggregator did 21 substitutions.
Reduced MIP has 1530 rows, 3304 columns, and 38066 nonzeros.
Reduced MIP has 3283 binaries, 0 generals, 0 SOSs, and 0 indicators.
Presolve time = 0.04 sec. (70.64 ticks)
Probing time = 0.00 sec. (6.53 ticks)
Clique table members: 10445.
MIP emphasis: balance optimality and feasibility.
MIP search method: dynamic search.
Parallel mode: deterministic, using up to 20 threads.
Root relaxation solution time = 0.13 sec. (265.04 ticks)

        Nodes                                         Cuts/
   Node  Left     Objective  IInf  Best Integer    Best Bound    ItCnt     Gap

*     0+    0                          284.2606       11.6713            95.89%
      0     0      186.5714   215      284.2606      186.5714       29   34.37%
*     0+    0                          281.2454      186.5714            33.66%
      0     0      218.0971   149      281.2454      Cuts: 24     4318   22.45%
      0     0      218.1740   143      281.2454      Cuts: 18     5759   22.43%
      0     0      218.1903   167      281.2454       Cuts: 9     7246   22.42%
      0     0      218.4679   145      281.2454      Cuts: 22     8331   22.32%
      0     0      218.7854   175      281.2454      Cuts: 17     8685   22.21%
Detecting symmetries...
      0     0      219.0495   196      281.2454      Cuts: 27     9068   22.11%
      0     0      219.1206   200      281.2454       Cuts: 5     9182   22.09%
      0     0      219.1206   208      281.2454       Cuts: 9     9540   22.09%
      0     0      219.1723   207      281.2454   ZeroHalf: 9    10384   22.07%
      0     0      219.2128   228      281.2454       Cuts: 7    11618   22.06%
      0     0      219.2556   217      281.2454      Cuts: 12    12917   22.03%
      0     0      220.0479   145      281.2454      Cuts: 14    15124   21.76%
      0     0      220.0479   170      281.2454      Cuts: 25    15671   21.76%
Detecting symmetries...
      0     2      220.0479   147      281.2454      220.8626    15671   21.47%
Elapsed time = 2.78 sec. (5469.68 ticks, tree = 0.02 MB, solutions = 2)
    115    18        cutoff            281.2454      220.8626    25276   21.47%
    118     3      222.7987   109      281.2454      220.8626    32258   21.47%
    310    29      274.0330    25      281.2454      223.0289    46170   20.70%
    847   212      247.5627   100      281.2454      224.5053   117636   20.17%
   1337   411      267.9754    94      281.2454      224.5053   183666   20.17%
   1780   571    infeasible            281.2454      224.5053   246349   20.17%
   2059   735        cutoff            281.2454      224.5053   306586   20.17%
*  2070+  738                          267.0618      224.5053            15.94%
*  2073+  700                          257.7613      224.5053            12.90%
   2122   580        cutoff            257.7613      224.5053   323436   12.90%
*  2188   495      integral     0      254.6371      224.5053   347103   11.83%
   3480   814        cutoff            254.6371      229.2487   577404    9.97%
Elapsed time = 5.69 sec. (8694.76 ticks, tree = 0.92 MB, solutions = 6)
*  3571   827      integral     0      253.7898      229.2487   593930    9.67%
   4687  1045      246.5551    82      253.7898      229.9154   766953    9.41%
*  5554+ 1094                          253.6643      237.7315             6.28%
   6147  1002    infeasible            253.6643      238.5810   999790    5.95%
   8424   614      253.6326    38      253.6643      240.7871  1151379    5.08%

Performing restart 1

Repeating presolve.
Tried aggregator 2 times.
MIP Presolve eliminated 44 rows and 516 columns.
MIP Presolve modified 11860 coefficients.
Aggregator did 12 substitutions.
Reduced MIP has 1474 rows, 2776 columns, and 29055 nonzeros.
Reduced MIP has 2755 binaries, 0 generals, 0 SOSs, and 0 indicators.
Presolve time = 0.03 sec. (54.98 ticks)
Tried aggregator 2 times.
MIP Presolve eliminated 36 rows and 82 columns.
MIP Presolve modified 236 coefficients.
Aggregator did 8 substitutions.
Reduced MIP has 1430 rows, 2686 columns, and 28163 nonzeros.
Reduced MIP has 2665 binaries, 0 generals, 0 SOSs, and 0 indicators.
Presolve time = 0.02 sec. (41.41 ticks)
Tried aggregator 1 time.
Reduced MIP has 1430 rows, 2686 columns, and 28163 nonzeros.
Reduced MIP has 2665 binaries, 0 generals, 0 SOSs, and 0 indicators.
Presolve time = 0.01 sec. (22.32 ticks)
Represolve time = 0.22 sec. (345.65 ticks)
   8709     0      221.5448   239      253.6643      Cuts: 27  1265603    2.89%
   8709     0      222.0083   313      253.6643      Cuts: 42  1268079    2.89%
   8709     0      222.7306   230      253.6643      Cuts: 25  1271320    2.89%
   8709     0      222.7717   232      253.6643      Cuts: 29  1273655    2.89%
   8709     0      222.7846   308      253.6643      Cuts: 19  1276579    2.89%
   8709     0      222.8714   274      253.6643      Cuts: 25  1280028    2.89%
   8709     0      222.8742   274      253.6643      Cuts: 24  1281328    2.89%
   8709     2      222.8742   250      253.6643      246.3443  1281328    2.89%
   8711     3      223.3413   194      253.6643      246.3443  1282823    2.89%
   8713     2      228.0890   125      253.6643      246.3443  1284257    2.89%
   8724     3      233.2848    81      253.6643      246.3443  1285510    2.89%
   8765    16    infeasible            253.6643      246.3443  1305654    2.89%
   9154    83        cutoff            253.6643      246.3443  1362371    2.89%
Elapsed time = 17.40 sec. (27859.53 ticks, tree = 0.07 MB, solutions = 8)
   9450    15      250.5487    98      253.6643      246.3443  1430189    2.89%
   9769    15        cutoff            253.6643      246.3443  1480599    2.89%
   9917    18      252.7370    45      253.6643      246.3443  1511871    2.89%
  10705    46      250.0924   177      253.6643      246.3443  1568988    2.89%
  10971    35      236.2999   174      253.6643      246.3443  1691529    2.89%
  11682    59        cutoff            253.6643      246.3443  1767652    2.89%
  12517   224      252.3795    55      253.6643      246.3443  1945443    2.89%
  12826    73      246.4434   147      253.6643      246.3443  2049695    2.89%
  12899    49      233.5146   255      253.6643      246.3443  2085793    2.89%
  13229    54      248.5238   151      253.6643      246.3443  2110427    2.89%
Elapsed time = 26.50 sec. (37453.07 ticks, tree = 0.10 MB, solutions = 8)
  13332    62      229.7427   197      253.6643      246.3443  2148580    2.89%
  13518    49      229.9800   193      253.6643      246.3443  2162485    2.89%
  13595    65      237.9084   175      253.6643      246.3443  2182697    2.89%

GUB cover cuts applied:  21
Clique cuts applied:  4
Cover cuts applied:  43
Implied bound cuts applied:  1
Flow cuts applied:  2
Mixed integer rounding cuts applied:  2
Zero-half cuts applied:  27
Lift and project cuts applied:  1
Gomory fractional cuts applied:  7

Root node processing (before b&c):
  Real time             =    2.73 sec. (5358.49 ticks)
Parallel b&c, 20 threads:
  Real time             =   25.20 sec. (35087.99 ticks)
  Sync time (average)   =   10.32 sec.
  Wait time (average)   =    0.01 sec.
                          ------------
Total (root+branch&cut) =   27.92 sec. (40446.49 ticks)
Feasible solution found!
Truck nodes:
Stage 1 at customer 0 with arrival time is: 0
Stage 1 at customer 0 with departure time is: 0
Stage 2 at customer 1 with arrival time is: 11.6713
Stage 2 at customer 1 with departure time is: 17.9958
Stage 3 at customer 8 with arrival time is: 78.5667
Stage 3 at customer 8 with departure time is: 78.5667
Stage 4 at customer 7 with arrival time is: 85.1804
Stage 4 at customer 7 with departure time is: 85.1804
Stage 5 at customer 10 with arrival time is: 126.687
Stage 5 at customer 10 with departure time is: 127.687
Stage 6 at customer 9 with arrival time is: 146.088
Stage 6 at customer 9 with departure time is: 147.088
Stage 7 at customer 6 with arrival time is: 192.383
Stage 7 at customer 6 with departure time is: 193.383
Stage 8 at customer 5 with arrival time is: 209.499
Stage 8 at customer 5 with departure time is: 210.499
Stage 9 at customer 11 with arrival time is: 253.664
Stage 9 at customer 11 with departure time is: 253.664
Truck arcs:
Arc 1 connecting 0 and 1 with cost 11.6713 
Arc 2 connecting 1 and 8 with cost 60.5709 
Arc 3 connecting 8 and 7 with cost 6.61364 
Arc 4 connecting 7 and 10 with cost 41.5066 
Arc 5 connecting 10 and 9 with cost 18.4014 
Arc 6 connecting 9 and 6 with cost 45.2943 
Arc 7 connecting 6 and 5 with cost 16.116 
Arc 8 connecting 5 and 11 with cost 43.1656 
Customer 2 served by drone.
Drone fly from 10 at stage 5 to serve 2 and then fly back to 9 at stage 6. 
Truck arcs during this sortie: 10--->9
Truck travel time from stage 5 to 6 is: 18.4014
Total drone travel time: 17.1612
Drone arrival time: 144.848
Truck arrival time: 146.088
Truck departure time = max(d/a, t/a) plus (sl/sr): 147.088
Customer 3 served by drone.
Drone fly from 6 at stage 7 to serve 3 and then fly back to 5 at stage 8. 
Truck arcs during this sortie: 6--->5
Truck travel time from stage 7 to 8 is: 16.116
Total drone travel time: 14.4823
Drone arrival time: 207.865
Truck arrival time: 209.499
Truck departure time = max(d/a, t/a) plus (sl/sr): 210.499
Customer 4 served by drone.
Drone fly from 0 at stage 1 to serve 4 and then fly back to 1 at stage 2. 
Truck arcs during this sortie: 0--->1
Truck travel time from stage 1 to 2 is: 11.6713
Total drone travel time: 16.9958
Drone arrival time: 16.9958
Truck arrival time: 11.6713
Truck departure time = max(d/a, t/a) plus (sl/sr): 17.9958
Done!
-------------------------Re-calculated objective-----------------------
253.664
------------------------------------------------------------------------
Solve time: 27.927
OBJECTIVE VALUE: 253.664, NUMBER OF SORTIES: 3.
Number of revisit: 0
In write mode
